8 7 64 63 62 61 60 6 59 781 57 56 55 54 53 52 51 50 5 49 48 47 46 45 44 43 42 41 40 39 38 37 36 35 34 33 32 31 30 29 28 27 26 25 24 23 22 21 20 19 18 17 16 15 14 13 12 10 908 907 906 905 902 899 898 897 895 894 893 892 887 886 885 884 882 881 879 878 874 58 871 870 868 866 865 864 857 851 850 843 840 839 838 829 824 822 815 809 808 801 800 80 799 797 796 795 794 789 788 787 786 785 784 900 780 78 775 774 773 770 769 767 765 762 761 759 755 753 752 750 75 749 748 747 745 744 741 74 738 734 731 729 728 727 726 721 720 72 717 712 710 71 705 703 70 699 698 696 692 691 690 69 689 686 685 684 683 682 681 68 679 678 677 675 674 673 672 671 669 668 182 873 661 66 657 655 654 65 649 648 647 646 643 642 641 640 635 634 633 627 626 624 621 616 615 614 605 598 591 590 588 586 585 580 579 578 577 574 573 572 571 570 565 564 563 562 560 557 556 555 551 550 549 548 545 543 542 538 535 529 528 522 521 520 514 509 507 505 501 498 496 493 489 486 479 472 467 465 464 462 460 459 458 452 451 447 445 444 443 439 437 433 431 429 424 423 419 416 412 409 408 407 403 398 397 395 393 390 386 383 381 366 365 363 361 360 353 348 339 332 331 325 257 320 319 318 312 311 310 292 269 264 262 241 227 222 214 213 212 180 171 504 733 660 589 559 546 541 537 453 417 411 402 389 306 261 199 904 802 597 593 553 448 421 392 384 355 336 875 867 723 628 584 502 450 426 889 783 697 475 342 341 515 670 610 798 763 694 622 492 324 845 803 330 836 779 531 367 832 500 322 704 658 582 328 715 665 618 480 370 369 609 385 9 506 83 751 530 399 739 667 601 732 680 414 434 350 314 358 73 568 713 329 778 768 554 371 82 427 382 346 663 632 440 359 812 405 338 651 321 347 178 84 499 334 639 596 595 511 483 435 283 890 136 754 625 415 735 11 708 725 441 379 790 404 719 650 566 85 777 513 488 737 345 793 876 818 442 335 742 289 468 425 764 910 709 96 517 666 736 613 791 473 357 344 652 377 317 847 848 693 313 491 356 503 469 837 401 67 539 305 455 706 304 896 695 862 337 846 561 454 438 525 391 707 722 456 86 619 841 827 372 484 804 413 883 903 494 852 375 315 340 198 623 186 834 662 547 817 470 394 211 428 117 436 287 569 183 226 103 516 594 772 872 362 101 119 121 724 811 877 823 343 637 290 267 185 130 132 142 487 510 457 333 184 108 174 820 128 432 757 192 141 766 248 364 853 782 215 190 911 79 293 380 476 629 603 418 771 176 806 94 175 449 1612 807 170 276 891 1333 1293 481 1547 133 833 1317 1401 150 819 296 901 869 430 268 286 653 282 295 909 676 700 1376 617 1439 233 477 240 474 1312 645 581 714 526 188 540 396 830 656 805 410 638 558 854 374 880 716 1308 125 612 291 1410 225 167 1409 1400 1418 239 534 149 544 756 323 349 156 98 316 463 583 326 400 599 247 962 825 221 607 228 1413 187 630 1273 533 1227 387 490 478 309 831 604 740 1228 861 146 148 532 327 664 821 758 659 307 288 308 711 297 378 140 461 587 145 512 495 810 536 246 816 163 860 888 575 263 826 792 2 855 636 842 688 154 524 76 631 519 111 376 602 422 730 776 4 420 164 814 743 608 863 849 352 552 497 482 368 567 760 702 644 813 611 600 527 518 406 388 373 523 351 265 3 828 746 701 687 835 485 471 466 303 165 508 294 912 301 300 299 302 1 93 91 89 856 844 620 592 576 277 446 266 249 237 236 235 216 208 207 193 179 129 81 255 250 194 279 223 157 859 99 97 95 92 90 88 87 858 77 718 354 298 285 284 281 280 278 275 274 273 272 271 270 260 259 258 256 254 253 252 251 245 244 243 242 238 234 232 231 230 229 224 220 219 218 217 210 209 206 205 204 203 202 201 200 197 196 191 189 181 177 173 172 169 168 166 162 161 160 159 158 155 153 152 151 147 144 143 139 138 137 135 134 131 127 126 124 123 122 120 118 116 115 114 113 112 110 109 107 106 105 104 102 100 195 606 1632 999 998 997 996 995 994 993 992 991 990 989 988 987 986 985 984 983 982 981 980 979 978 977 976 975 974 973 972 971 970 969 968 967 966 965 964 963 961 960 959 958 957 956 955 954 953 952 951 950 949 948 947 946 945 944 943 942 941 940 939 938 937 936 935 934 933 932 931 930 929 928 927 926 925 924 923 922 921 920 919 918 917 916 915 914 913 1631 1630 1629 1628 1627 1626 1625 1624 1623 1622 1621 1620 1619 1618 1617 1616 1615 1614 1613 1611 1610 1609 1608 1607 1606 1605 1604 1603 1602 1601 1600 1599 1598 1597 1596 1595 1594 1593 1592 1591 1590 1589 1588 1587 1586 1585 1584 1583 1582 1581 1580 1579 1578 1577 1576 1575 1574 1573 1572 1571 1570 1569 1568 1567 1566 1565 1564 1563 1562 1561 1560 1559 1558 1557 1556 1555 1554 1553 1552 1551 1550 1549 1548 1546 1545 1544 1543 1542 1541 1540 1539 1538 1537 1536 1535 1534 1533 1532 1531 1530 1529 1528 1527 1526 1525 1524 1523 1522 1521 1520 1519 1518 1517 1516 1515 1514 1513 1512 1511 1510 1509 1508 1507 1506 1505 1504 1503 1502 1501 1500 1499 1498 1497 1496 1495 1494 1493 1492 1491 1490 1489 1488 1487 1486 1485 1484 1483 1482 1481 1480 1479 1478 1477 1476 1475 1474 1473 1472 1471 1470 1469 1468 1467 1466 1465 1464 1463 1462 1461 1460 1459 1458 1457 1456 1455 1454 1453 1452 1451 1450 1449 1448 1447 1446 1445 1444 1443 1442 1441 1440 1438 1437 1436 1435 1434 1433 1432 1431 1430 1429 1428 1427 1426 1425 1424 1423 1422 1421 1420 1419 1417 1416 1415 1414 1412 1411 1408 1407 1406 1405 1404 1403 1402 1399 1398 1397 1396 1395 1394 1393 1392 1391 1390 1389 1388 1387 1386 1385 1384 1383 1382 1381 1380 1379 1378 1377 1375 1374 1373 1372 1371 1370 1369 1368 1367 1366 1365 1364 1363 1362 1361 1360 1359 1358 1357 1356 1355 1354 1353 1352 1351 1350 1349 1348 1347 1346 1345 1344 1343 1342 1341 1340 1339 1338 1337 1336 1335 1334 1332 1331 1330 1329 1328 1327 1326 1325 1324 1323 1322 1321 1320 1319 1318 1316 1315 1314 1313 1311 1310 1309 1307 1306 1305 1304 1303 1302 1301 1300 1299 1298 1297 1296 1295 1294 1292 1291 1290 1289 1288 1287 1286 1285 1284 1283 1282 1281 1280 1279 1278 1277 1276 1275 1274 1272 1271 1270 1269 1268 1267 1266 1265 1264 1263 1262 1261 1260 1259 1258 1257 1256 1255 1254 1253 1252 1251 1250 1249 1248 1247 1246 1245 1244 1243 1242 1241 1240 1239 1238 1237 1236 1235 1234 1233 1232 1231 1230 1229 1226 1225 1224 1223 1222 1221 1220 1219 1218 1217 1216 1215 1214 1213 1212 1211 1210 1209 1208 1207 1206 1205 1204 1203 1202 1201 1200 1199 1198 1197 1196 1195 1194 1193 1192 1191 1190 1189 1188 1187 1186 1185 1184 1183 1182 1181 1180 1179 1178 1177 1176 1175 1174 1173 1172 1171 1170 1169 1168 1167 1166 1165 1164 1163 1162 1161 1160 1159 1158 1157 1156 1155 1154 1153 1152 1151 1150 1149 1148 1147 1146 1145 1144 1143 1142 1141 1140 1139 1138 1137 1136 1135 1134 1133 1132 1131 1130 1129 1128 1127 1126 1125 1124 1123 1122 1121 1120 1119 1118 1117 1116 1115 1114 1113 1112 1111 1110 1109 1108 1107 1106 1105 1104 1103 1102 1101 1100 1099 1098 1097 1096 1095 1094 1093 1092 1091 1090 1089 1088 1087 1086 1085 1084 1083 1082 1081 1080 1079 1078 1077 1076 1075 1074 1073 1072 1071 1070 1069 1068 1067 1066 1065 1064 1063 1062 1061 1060 1059 1058 1057 1056 1055 1054 1053 1052 1051 1050 1049 1048 1047 1046 1045 1044 1043 1042 1041 1040 1039 1038 1037 1036 1035 1034 1033 1032 1031 1030 1029 1028 1027 1026 1025 1024 1023 1022 1021 1020 1019 1018 1017 1016 1015 1014 1013 1012 1011 1010 1009 1008 1007 1006 1005 1004 1003 1002 1001 1000 
